n_machines = 3;
n_resources = 5;
n_jobs = 100;
horizon = 50769;
LB = 16923;
n_jobs_per_resource = [20, 20, 20, 20, 20];
duration = [235, 673, 472, 287, 125, 741, 603, 335, 276, 394, 201, 318, 906, 936, 219, 686, 828, 564, 630, 842, 544, 583, 144, 535, 763, 461, 904, 42, 181, 504, 50, 84, 386, 581, 439, 539, 917, 654, 837, 730, 859, 711, 264, 33, 817, 140, 988, 783, 938, 991, 774, 891, 233, 456, 222, 282, 32, 476, 875, 139, 939, 216, 443, 359, 988, 967, 29, 132, 820, 999, 446, 376, 914, 602, 755, 706, 507, 544, 305, 228, 6, 786, 199, 700, 738, 225, 357, 787, 263, 885, 404, 541, 526, 322, 185, 46, 446, 540, 215, 270]